c description: Random 3-CNF over 14 variables and 59 clauses
c generator: CNFgen (0.9.2)
c copyright: (C) 2012-2022 Massimo Lauria <massimo.lauria@uniroma1.it>
c url: https://massimolauria.net/cnfgen
c command line: cnfgen --output CNF_4.28/14_bit_59_929.cnf randkcnf 3 14 59
c
p cnf 14 59
3 9 13 0
-5 6 -7 0
-2 -4 -13 0
-3 6 -10 0
-3 -6 8 0
2 4 13 0
-1 2 -14 0
-1 -5 -7 0
4 8 14 0
6 -7 12 0
-8 10 11 0
-5 8 -11 0
6 9 10 0
3 4 8 0
-10 11 12 0
3 6 10 0
-2 4 -8 0
-4 -11 14 0
1 3 -6 0
6 -9 -11 0
-8 9 11 0
4 5 -14 0
-5 10 14 0
3 -9 -13 0
3 7 11 0
4 -9 -13 0
-4 5 14 0
-1 4 -14 0
-4 6 -11 0
6 10 13 0
-6 -7 14 0
4 5 -6 0
2 4 -10 0
-1 -3 -6 0
7 -8 10 0
-1 -7 -12 0
3 6 14 0
8 10 -14 0
-2 6 12 0
-4 -12 14 0
3 -7 9 0
6 -7 -10 0
1 -5 10 0
3 12 -13 0
4 11 13 0
4 9 12 0
-1 -2 11 0
2 4 -11 0
3 6 7 0
-7 9 11 0
9 12 14 0
5 -9 -12 0
1 4 -5 0
5 -7 9 0
4 -9 -10 0
1 8 14 0
-8 11 -13 0
3 -4 -10 0
-5 6 -9 0
